sat
(:added-eqs                       22736
 :arith-eq-adapter                364
 :arith-bound-propagations-lp     2329
 :arith-branch                    18
 :arith-conflicts                 2062
 :arith-cube-calls                6
 :arith-diseq                     3571
 :arith-fixed-eqs                 2625
 :arith-gcd-calls                 329
 :arith-gomory-cuts               4
 :arith-grobner-calls             347
 :arith-grobner-conflicts         113
 :arith-hnf-calls                 3
 :arith-horner-calls              80
 :arith-horner-conflicts          1
 :arith-horner-cross-nested-forms 12545
 :arith-lower                     9129
 :arith-make-feasible             6491
 :arith-max-columns               380
 :arith-max-rows                  177
 :arith-nla-add-bounds            61
 :arith-nla-lemmas                1142
 :arith-nla-propagate-bounds      520
 :arith-nla-propagate-eq          7412
 :arith-nra-calls                 99
 :arith-offset-eqs                1818
 :arith-patches                   329
 :arith-patches-success           297
 :arith-upper                     18482
 :binary-propagations             53066
 :conflicts                       848
 :decisions                       48435
 :del-clause                      1632
 :elim-unconstrained              34
 :final-checks                    707
 :max-memory                      24.76
 :memory                          18.82
 :minimized-lits                  5083
 :mk-bool-var                     3916
 :mk-clause                       3057
 :mk-clause-binary                5915
 :num-allocs                      885653530
 :num-checks                      1
 :propagations                    75303
 :restarts                        7
 :rlimit-count                    5053849
 :time                            1.83
 :total-time                      1.85)
